h -46 -48 -21 33 0
1 -58 0
h -16 -33 0
h -24 60 0
h -11 -19 0
h -40 -45 0
h 21 -27 0
h 11 -16 45 0
h 26 35 0
h 45 46 0
h 19 -24 0
h -27 39 -35 0
h 24 60 19 0
h -21 41 0
h 27 28 33 0
h 40 -39 0
h 21 58 0
h -26 -32 0
380755875 -59 0
h 32 28 0
h 35 46 0
h 26 34 0
h 16 -45 11 -48 0
1959789444 -60 0
h -23 -41 0
h 48 36 0
h 39 -20 0
h -39 -41 26 0
h 20 -36 0
h 27 23 24 0
h -34 -20 0
h 16 -28 0
1956747369 -61 0
